files/upTests/_relations/RelationSet-lit/0001.eprime.solution
language ESSENCE' 1.0
$ minion Nodes: 1
$ minion TotalTime: 0.000686
$ Savile Row TotalTime: 0.253
letting x_SetExplicit_RelationIntMatrix2 be [[[false;int(3)], 
[false;int(3)];int(1..2)], 
[[false;int(3)], 
[true;int(3)];int(1..2)];int(1..2)]
